benchmarks/bfuzz0/259331619627791678628764191372262529435.smt2
(set-logic QF_FP)
(declare-const x0 (_ FloatingPoint 11 53))
(declare-const x1 (_ FloatingPoint 11 53))
(declare-const x2 (_ FloatingPoint 11 53))
(declare-const x3 (_ FloatingPoint 11 53))
(declare-const x4 (_ FloatingPoint 11 53))
(declare-const x5 (_ FloatingPoint 11 53))
(declare-const x6 (_ FloatingPoint 11 53))
(declare-const x7 (_ FloatingPoint 11 53))
(declare-const x8 (_ FloatingPoint 11 53))
(declare-const x9 (_ FloatingPoint 11 53))
(declare-const x10 (_ FloatingPoint 11 53))
(declare-const x11 (_ FloatingPoint 11 53))
(declare-const x12 (_ FloatingPoint 11 53))
(assert (fp.leq (fp.mul RNE (fp.sub RNE (fp.div RNE (fp.sub RNE x1 x2) (fp.div RNE x2 x11)) (fp.div RNE (fp.mul RNE x1 x4) (fp.neg x12))) (fp.sub RNE (fp.neg (fp.div RNE x2 x9)) (fp.mul RNE (fp.mul RNE x2 x1) (fp.neg x3)))) (fp.mul RNE (fp.sub RNE (fp.div RNE (fp.mul RNE x10 x4) (fp.add RNE x4 x3)) (fp.mul RNE (fp.div RNE x6 x11) (fp.mul RNE x3 x10))) (fp.neg (fp.div RNE (fp.add RNE x0 x9) (fp.mul RNE x9 x10))))))
(assert (fp.lt (fp.neg (fp.add RNE (fp.add RNE (fp.neg x9) (fp.div RNE x12 x8)) (fp.neg (fp.neg x0)))) (fp.neg (fp.neg (fp.neg (fp.mul RNE x8 x9))))))
(assert (fp.gt (fp.add RNE (fp.mul RNE (fp.neg (fp.div RNE x6 x4)) (fp.neg (fp.neg x4))) (fp.neg (fp.div RNE (fp.div RNE x11 x8) (fp.neg x8)))) (fp.sub RNE (fp.neg (fp.sub RNE (fp.sub RNE x1 x11) (fp.sub RNE x10 x9))) (fp.mul RNE (fp.sub RNE (fp.sub RNE x1 x6) (fp.mul RNE x7 x2)) (fp.mul RNE (fp.mul RNE x0 x7) (fp.neg x12))))))
(check-sat)
