db/data/259331619627791678628764191372262529435.z3.out
-------------------
2500.109236717
